NAME: ACTUAL_TOURS/amz0188
TYPE: TOUR
COMMENT: RouteID_13869eb6-9aba-49f4-8569-15e34839001d
DIMENSION: 132
TOUR_SECTION
127
110
68
70
103
111
12
23
84
82
79
74
72
32
43
38
16
94
76
44
95
119
108
26
24
83
5
8
120
2
36
22
115
73
30
98
129
116
20
61
64
34
21
87
65
53
15
77
85
92
131
114
86
109
41
39
100
31
102
93
40
47
56
17
59
88
123
51
91
112
14
118
58
7
54
104
106
48
78
101
19
81
69
125
29
45
132
50
113
42
97
96
130
90
117
60
63
37
49
80
1
62
66
52
4
57
9
67
25
46
75
18
89
33
6
35
10
107
3
28
122
27
121
55
99
126
13
128
105
124
11
71
-1
EOF
